21° run output:
{
    "Function": "kroB400.tsp",
    "Problem dimension": [
        133,
        335,
        121,
        227,
        190,
        120,
        375,
        98,
        128,
        318,
        309,
        287,
        165,
        38,
        308,
        142,
        170,
        216,
        195,
        96,
        370,
        162,
        322,
        35,
        171,
        166,
        338,
        94,
        65,
        36,
        155,
        74,
        364,
        145,
        5,
        304,
        395,
        49,
        241,
        163,
        377,
        365,
        27,
        281,
        66,
        169,
        40,
        136,
        360,
        264,
        81,
        245,
        33,
        390,
        86,
        172,
        279,
        328,
        280,
        192,
        101,
        265,
        153,
        30,
        356,
        180,
        129,
        154,
        83,
        379,
        351,
        239,
        100,
        399,
        350,
        346,
        7,
        174,
        352,
        363,
        157,
        389,
        61,
        209,
        188,
        182,
        51,
        82,
        234,
        99,
        39,
        159,
        152,
        336,
        92,
        200,
        97,
        387,
        311,
        250,
        103,
        91,
        193,
        397,
        276,
        161,
        383,
        320,
        300,
        256,
        189,
        357,
        269,
        372,
        326,
        63,
        219,
        242,
        54,
        205,
        186,
        77,
        134,
        167,
        113,
        20,
        244,
        72,
        355,
        164,
        393,
        359,
        44,
        147,
        226,
        112,
        233,
        21,
        373,
        10,
        252,
        144,
        225,
        207,
        73,
        178,
        87,
        9,
        31,
        58,
        202,
        191,
        275,
        214,
        62,
        257,
        262,
        117,
        321,
        384,
        301,
        302,
        286,
        55,
        118,
        366,
        194,
        285,
        185,
        42,
        221,
        282,
        119,
        140,
        43,
        237,
        396,
        199,
        353,
        224,
        122,
        84,
        102,
        14,
        344,
        57,
        168,
        24,
        151,
        17,
        64,
        123,
        23,
        93,
        160,
        362,
        317,
        111,
        146,
        306,
        108,
        156,
        290,
        78,
        107,
        69,
        251,
        213,
        106,
        325,
        4,
        381,
        75,
        266,
        125,
        305,
        295,
        248,
        204,
        187,
        385,
        71,
        114,
        382,
        267,
        28,
        132,
        398,
        183,
        358,
        337,
        11,
        368,
        127,
        289,
        124,
        56,
        0,
        292,
        198,
        85,
        131,
        254,
        15,
        341,
        137,
        130,
        323,
        376,
        243,
        143,
        95,
        277,
        184,
        232,
        76,
        3,
        110,
        141,
        392,
        45,
        299,
        46,
        235,
        89,
        278,
        394,
        268,
        324,
        361,
        2,
        293,
        283,
        288,
        208,
        253,
        25,
        296,
        59,
        367,
        284,
        386,
        88,
        339,
        179,
        90,
        329,
        181,
        273,
        48,
        240,
        294,
        223,
        158,
        210,
        378,
        52,
        231,
        211,
        313,
        148,
        218,
        197,
        149,
        32,
        41,
        316,
        139,
        80,
        247,
        319,
        196,
        334,
        67,
        68,
        135,
        34,
        312,
        79,
        228,
        238,
        342,
        298,
        263,
        229,
        374,
        307,
        261,
        1,
        222,
        18,
        272,
        6,
        371,
        249,
        388,
        26,
        173,
        115,
        333,
        297,
        354,
        345,
        259,
        327,
        347,
        330,
        22,
        258,
        138,
        246,
        126,
        29,
        37,
        70,
        116,
        176,
        177,
        314,
        109,
        220,
        369,
        215,
        271,
        291,
        332,
        104,
        201,
        150,
        8,
        391,
        310,
        315,
        217,
        175,
        60,
        340,
        255,
        47,
        274,
        53,
        203,
        236,
        105,
        260,
        212,
        206,
        348,
        303,
        19,
        331,
        50,
        16,
        230,
        13,
        270,
        343,
        12,
        349,
        380
    ],
    "Global Optimum": 0,
    "Algorithm": "Genetic algorithm",
    "Parameters": {
        "population": 30,
        "offspring": 30,
        "mutation probability": 0.0025,
        "crossover probability": 0.9
    },
    "Fitness": 481375,
    "Solution": [
        133,
        335,
        121,
        227,
        190,
        120,
        375,
        98,
        128,
        318,
        309,
        287,
        165,
        38,
        308,
        142,
        170,
        216,
        195,
        96,
        370,
        162,
        322,
        35,
        171,
        166,
        338,
        94,
        65,
        36,
        155,
        74,
        364,
        145,
        5,
        304,
        395,
        49,
        241,
        163,
        377,
        365,
        27,
        281,
        66,
        169,
        40,
        136,
        360,
        264,
        81,
        245,
        33,
        390,
        86,
        172,
        279,
        328,
        280,
        192,
        101,
        265,
        153,
        30,
        356,
        180,
        129,
        154,
        83,
        379,
        351,
        239,
        100,
        399,
        350,
        346,
        7,
        174,
        352,
        363,
        157,
        389,
        61,
        209,
        188,
        182,
        51,
        82,
        234,
        99,
        39,
        159,
        152,
        336,
        92,
        200,
        97,
        387,
        311,
        250,
        103,
        91,
        193,
        397,
        276,
        161,
        383,
        320,
        300,
        256,
        189,
        357,
        269,
        372,
        326,
        63,
        219,
        242,
        54,
        205,
        186,
        77,
        134,
        167,
        113,
        20,
        244,
        72,
        355,
        164,
        393,
        359,
        44,
        147,
        226,
        112,
        233,
        21,
        373,
        10,
        252,
        144,
        225,
        207,
        73,
        178,
        87,
        9,
        31,
        58,
        202,
        191,
        275,
        214,
        62,
        257,
        262,
        117,
        321,
        384,
        301,
        302,
        286,
        55,
        118,
        366,
        194,
        285,
        185,
        42,
        221,
        282,
        119,
        140,
        43,
        237,
        396,
        199,
        353,
        224,
        122,
        84,
        102,
        14,
        344,
        57,
        168,
        24,
        151,
        17,
        64,
        123,
        23,
        93,
        160,
        362,
        317,
        111,
        146,
        306,
        108,
        156,
        290,
        78,
        107,
        69,
        251,
        213,
        106,
        325,
        4,
        381,
        75,
        266,
        125,
        305,
        295,
        248,
        204,
        187,
        385,
        71,
        114,
        382,
        267,
        28,
        132,
        398,
        183,
        358,
        337,
        11,
        368,
        127,
        289,
        124,
        56,
        0,
        292,
        198,
        85,
        131,
        254,
        15,
        341,
        137,
        130,
        323,
        376,
        243,
        143,
        95,
        277,
        184,
        232,
        76,
        3,
        110,
        141,
        392,
        45,
        299,
        46,
        235,
        89,
        278,
        394,
        268,
        324,
        361,
        2,
        293,
        283,
        288,
        208,
        253,
        25,
        296,
        59,
        367,
        284,
        386,
        88,
        339,
        179,
        90,
        329,
        181,
        273,
        48,
        240,
        294,
        223,
        158,
        210,
        378,
        52,
        231,
        211,
        313,
        148,
        218,
        197,
        149,
        32,
        41,
        316,
        139,
        80,
        247,
        319,
        196,
        334,
        67,
        68,
        135,
        34,
        312,
        79,
        228,
        238,
        342,
        298,
        263,
        229,
        374,
        307,
        261,
        1,
        222,
        18,
        272,
        6,
        371,
        249,
        388,
        26,
        173,
        115,
        333,
        297,
        354,
        345,
        259,
        327,
        347,
        330,
        22,
        258,
        138,
        246,
        126,
        29,
        37,
        70,
        116,
        176,
        177,
        314,
        109,
        220,
        369,
        215,
        271,
        291,
        332,
        104,
        201,
        150,
        8,
        391,
        310,
        315,
        217,
        175,
        60,
        340,
        255,
        47,
        274,
        53,
        203,
        236,
        105,
        260,
        212,
        206,
        348,
        303,
        19,
        331,
        50,
        16,
        230,
        13,
        270,
        343,
        12,
        349,
        380
    ],
    "Nb of functions evaluations": 50010,
    "Computational time in seconds": 243.1792914867401,
    "Stopping criterion in evaluations": 50000
}